
  22   10
  10   10   10   10   10   10   10   10   10   10

   0   0   0   0   0   0   0   0   0   0   0   4 2 5 6 8 
   2  10   0   0   0   0   0   0   0   0   0   2 7 3 
   2   0   0   0   0   0   0  10   0   0   0   1 4 
  10  10   0   0   0   0   0   0   0   0   0   3 13 10 9 
   5   0   0  10   0   0   0   0   0   0   0   3 13 10 9 
   3   0   0   0   0  10   0   0   0   0   0   3 13 11 9 
   4   0   0   0  10   0   0   0   0   0   0   3 21 13 11 
   6   0  10   0   0   0   0   0   0   0   0   3 13 12 9 
   8   0  10   0   0   0   0   0   0   0   0   4 21 20 17 14 
   2   0   0  10   0   0   0   0   0   0   0   1 11 
   4   0   0   0   0  10   0   0   0   0   0   2 20 12 
   8   0   0   0   0   0  10   0   0   0   0   1 14 
   8   0  10   0   0   0   0   0   0   0   0   3 20 19 17 
   8   0   0   0   0   0  10   0   0   0   0   2 19 15 
   3   0   0   0   0   0   0   0   0  10   0   1 16 
   6   0   0   0   0   0  10   0   0   0   0   1 18 
   5   0   0   0   0   0   0  10   0   0   0   1 18 
   4  10   0   0   0   0   0   0   0   0   0   1 22
   4   0   0   0   0   0   0   0   0  10   0   1 22
   4   0   0   0   0  10   0   0   0   0   0   1 22
   3   0  10   0   0   0   0   0   0   0   0   1 22
   0   0   0   0   0   0   0   0   0   0   0   0 
